Optimal - objective value -49.00000000
      0 sv_addi0                     5                      -1
      1 sv_addi1                     5                      -1
      2 sv_addi2                     6                      -1
      3 sv_addi3                     0                      -1
      4 sv_br1                       0                      -1
      5 sv_br2                       0                      -1
      6 sv_br3                       0                      -1
      7 sv_cmpi0                     1                      -1
      8 sv_cond_br1                  1                      -1
      9 sv_cond_br2                  7                      -1
     10 sv_cond_br3                  1                      -1
     11 sv_cond_br4                  7                      -1
     12 sv_cond_br5                  1                      -1
     13 sv_constant1                 0                      -1
     14 sv_constant2                 0                      -1
     15 sv_constant5                 0                      -1
     16 sv_extui0                    0                      -1
     17 sv_extui1                    0                      -1
     18 sv_extui2                    0                      -1
     19 sv_extui3                    0                      -1
     20 sv_extui4                    0                      -1
     21 sv_extui5                    0                      -1
     22 sv_extui6                    0                      -1
     23 sv_index_cast0               0                      -1
     24 sv_index_cast1               0                      -1
     25 sv_index_cast2               0                      -1
     26 sv_index_cast3               0                      -1
     27 sv_index_cast4               0                      -1
     28 sv_index_cast5               0                      -1
     29 sv_index_cast6               0                      -1
     30 sv_load0                     0                      -1
     31 sv_load1                     0                      -1
     32 sv_load2                     0                      -1
     33 sv_load3                     0                      -1
     34 sv_load4                     0                      -1
     35 sv_load5                     0                      -1
     36 sv_muli0                     1                      -1
     37 sv_muli1                     1                      -1
     38 sv_phi0                      0                      -1
     39 sv_phi1                      0                      -1
     40 sv_phi2                      0                      -1
     41 sv_return1                   7                      -1
     42 sv_start0                    0                      -1
     43 sv_store6                    6                      -1
